(set-logic HORN)
(set-info :source |
    Benchmark: C_VC
    Output by Princess (http://www.philipp.ruemmer.org/princess.shtml)
|)
(set-info :status sat)
;===============================================================================
; Encoding of Heap sorts and operations
;-------------------------------------------------------------------------------
(define-sort Addr() Int)
(declare-datatypes ((AddrRange 0))
                   (((AddrRange (AddrRangeStart Addr) (AddrRangeSize Int)))))

(declare-datatypes ((HeapObject 0))
                   (((O_Int (getInt Int)) (O_UInt (getUInt Int)) (O_Addr (getAddr Addr)) (defObj))))
(declare-datatypes ((BatchAllocResHeap 0) (AllocResHeap 0) (Heap 0))
                   (((BatchAllocResHeap   (newBatchHeap Heap) (newAddrRange AddrRange)))
                   ((AllocResHeap   (newHeap Heap) (newAddr Addr)))
                    ((HeapCtor (HeapSize Int)
                               (HeapContents (Array Addr HeapObject))))))
(define-fun nullAddr  () Addr 0)
(define-fun validHeap     ((h Heap) (p Addr)) Bool
  (and (>= (HeapSize h) p) (> p 0)))
(define-fun emptyHeap () Heap (
  HeapCtor 0 (( as const (Array Addr HeapObject)) defObj)))
(define-fun readHeap ((h Heap) (p Addr)) HeapObject
  (ite (validHeap h p)
       (select (HeapContents h) p)
       defObj))
(define-fun writeHeap ((h Heap) (p Addr) (o HeapObject)) Heap
  (ite (validHeap h p)
       (HeapCtor (HeapSize h) (store (HeapContents h) p o))
       h))
(define-fun allocHeap   ((h Heap) (o HeapObject)) AllocResHeap
  (AllocResHeap (HeapCtor (+ 1 (HeapSize h))
                    (store (HeapContents h) (+ 1 (HeapSize h)) o))
          (+ 1 (HeapSize h))))
(define-fun Heap-eq     ((h1 Heap) (h2 Heap)) Bool
  (forall ((p Addr))
          (and (= (validHeap h1 p) (validHeap h2 p))
               (= (readHeap h1 p) (readHeap h2 p)))))
(define-fun nthAddrRange((ar AddrRange) (n Int)) Addr
  (ite (and (>= n 0) (< n (AddrRangeSize ar)))
       (+ (AddrRangeStart ar) n)
       nullAddr))
(define-fun withinHeap ((ar AddrRange ) (p Addr)) Bool
  (and (>= p (AddrRangeStart ar)) (< p (+ (AddrRangeStart ar) (AddrRangeSize ar)))))

(declare-fun batchAllocHeap     (Heap Heap HeapObject Int Int) Bool)
(declare-fun batchAllocPostHeap (Heap Heap HeapObject Int) Bool)

(assert (forall ((h1 Heap) (h2 Heap) (o HeapObject) (n1 Int) (n2 Int))
                (=> (and (> n2 0) (batchAllocHeap h1 h2 o n1 n2))
                   (batchAllocHeap h1 (newHeap (allocHeap h2 o)) o n1 (- n2 1)))))
(assert (forall ((h1 Heap) (h2 Heap) (o HeapObject) (n1 Int) (n2 Int))
                (=> (and (<= n2 0) (batchAllocHeap h1 h2 o n1 n2))
                   (batchAllocPostHeap h1 h2 o n1))))

(declare-fun batchWriteHeap     (Heap Heap Addr Addr HeapObject Int Int) Bool)
(declare-fun batchWritePostHeap (Heap Heap Addr HeapObject Int) Bool)

(assert (forall ((h1 Heap) (h2 Heap) (a1 Addr) (a2 Addr) (o HeapObject) (n1 Int) (n2 Int))
                (=> (and (> n2 0) (batchWriteHeap h1 h2 a1 a2 o n1 n2))
                   (batchWriteHeap h1 (writeHeap h2 a2 o) a1 (+ a2 1) o n1 (- n2 1)))))
(assert (forall ((h1 Heap) (h2 Heap) (a1 Addr) (a2 Addr) (o HeapObject) (n1 Int) (n2 Int))
                (=> (and (<= n2 0) (batchWriteHeap h1 h2 a1 a2 o n1 n2))
                   (batchWritePostHeap h1 h2 a1 o n1))))

;===============================================================================
(declare-fun inv_main14 (Heap Int Int Int Int Int AddrRange) Bool)
(declare-fun inv_main16 (Heap Int Int Int Int Int AddrRange) Bool)
(declare-fun inv_main17 (Heap Int Int Int Int Int AddrRange) Bool)
(declare-fun inv_main27 (Heap Int Int Int Int Int AddrRange) Bool)
(declare-fun inv_main29 (Heap Int Int Int Int Int AddrRange Int) Bool)
(declare-fun inv_main35 (Heap Int Int Int Int Int AddrRange Int) Bool)
(declare-fun inv_main5 (Heap Int Int Int) Bool)
(assert (forall ((var0 Int) (var1 Int) (var2 Heap)) (or (not (= var2 emptyHeap)) (inv_main5 var2 var1 100000 var0))))
(assert (forall ((var0 AddrRange) (var1 Int) (var2 Int) (var3 Int) (var4 Int) (var5 Int) (var6 Heap)) (or (not (and (and (and (inv_main16 var6 var5 var4 var3 var2 var1 var0) (or (not (<= 0 (+ (+ (* (- 1) var5) var4) (* (- 1) 1)))) (not (= var1 0)))) (not (= var1 0))) (<= 0 (+ (+ (+ (* (- 1) var3) (* (- 1) 1)) var4) (* (- 1) 1))))) (inv_main27 var6 var3 var4 var3 var2 var1 var0))))
(assert (forall ((var0 AddrRange) (var1 Int) (var2 Int) (var3 Int) (var4 Heap) (var5 Int) (var6 Int) (var7 Int) (var8 AddrRange) (var9 Int) (var10 Int) (var11 Int) (var12 Int) (var13 Int) (var14 Heap)) (or (not (and (and (and (and (and (and (and (and (and (and (inv_main29 var14 var13 var12 var11 var10 var9 var8 var7) (= var0 var8)) (= var1 var9)) (= var2 var10)) (= var3 var11)) (= var6 var12)) (= var5 var13)) (= var4 (writeHeap var14 (nthAddrRange var8 var13) (O_Int var7)))) (is-O_Int (readHeap var14 (nthAddrRange var8 var13)))) (is-O_Int (readHeap var14 (nthAddrRange var8 var13)))) (<= 0 (+ (+ (+ (* (- 1) (+ var5 1)) (* (- 1) 1)) var6) (* (- 1) 1))))) (inv_main27 var4 (+ var5 1) var6 var3 var2 var1 var0))))
(assert (forall ((var0 AddrRange) (var1 Int) (var2 Int) (var3 Int) (var4 Int) (var5 Heap) (var6 Int) (var7 Int) (var8 AddrRange) (var9 Int) (var10 Int) (var11 Int) (var12 Int) (var13 Int) (var14 Heap)) (or (not (and (and (and (and (and (and (and (and (and (and (inv_main14 var14 var13 var12 var11 var10 var9 var8) (= var0 var8)) (= var1 var9)) (= var2 var10)) (= var3 var11)) (= var7 var12)) (= var6 var13)) (= var5 (writeHeap var14 (nthAddrRange var8 var13) (O_Int var4)))) (is-O_Int (readHeap var14 (nthAddrRange var8 var13)))) (is-O_Int (readHeap var14 (nthAddrRange var8 var13)))) (<= 0 (+ (+ (* (- 1) (+ var6 1)) var7) (* (- 1) 1))))) (inv_main14 var5 (+ var6 1) var7 var3 var2 var1 var0))))
(assert (forall ((var0 AddrRange) (var1 Int) (var2 Int) (var3 Int) (var4 Int) (var5 Int) (var6 Int) (var7 Heap) (var8 Int) (var9 Int) (var10 Int) (var11 Int) (var12 Heap)) (or (not (and (batchAllocHeapPostHeap emptyHeap var7 (O_Int var6) var10) (and (and (and (and (and (and (and (and (inv_main5 var12 var11 var10 var9) (= var0 (AddrRange (ite (<= 0 (+ var10 (- 1))) (+ (HeapSize emptyHeap) 1) (HeapSize emptyHeap)) var10))) (= var1 0)) (= var3 var2)) (= var4 var9)) (= var8 var10)) (= var5 var11)) true) (<= 0 (+ var8 (* (- 1) 1)))))) (inv_main14 var7 0 var8 var4 var3 var1 var0))))
(assert (forall ((var0 AddrRange) (var1 Int) (var2 Int) (var3 Int) (var4 Int) (var5 Int) (var6 Int) (var7 Heap) (var8 Int) (var9 Int) (var10 Int) (var11 Int) (var12 Heap)) (or (not (and (and (and (and (and (and (and (and (inv_main5 var12 var11 var10 var9) (= var0 (AddrRange (ite (<= 0 (+ var10 (- 1))) (+ (HeapSize emptyHeap) 1) (HeapSize emptyHeap)) var10))) (= var1 0)) (= var3 var2)) (= var4 var9)) (= var8 var10)) (= var5 var11)) true) (<= 0 (+ var8 (* (- 1) 1))))) (batchAllocHeap emptyHeap emptyHeap (O_Int var6) var10 var10))))
(assert (forall ((var0 AddrRange) (var1 Int) (var2 Int) (var3 Int) (var4 Int) (var5 Heap) (var6 Int) (var7 Int) (var8 AddrRange) (var9 Int) (var10 Int) (var11 Int) (var12 Int) (var13 Int) (var14 Heap)) (or (not (and (and (and (and (and (and (and (and (and (and (inv_main14 var14 var13 var12 var11 var10 var9 var8) (= var0 var8)) (= var1 var9)) (= var2 var10)) (= var3 var11)) (= var7 var12)) (= var6 var13)) (= var5 (writeHeap var14 (nthAddrRange var8 var13) (O_Int var4)))) (is-O_Int (readHeap var14 (nthAddrRange var8 var13)))) (is-O_Int (readHeap var14 (nthAddrRange var8 var13)))) (not (<= 0 (+ (+ (* (- 1) (+ var6 1)) var7) (* (- 1) 1)))))) (inv_main16 var5 0 var7 var3 var2 var1 var0))))
(assert (forall ((var0 AddrRange) (var1 Int) (var2 Int) (var3 Int) (var4 Int) (var5 Heap) (var6 Int) (var7 Int) (var8 AddrRange) (var9 Int) (var10 Int) (var11 Int) (var12 Int) (var13 Int) (var14 Heap)) (or (not (and (and (and (and (and (and (and (and (and (and (inv_main17 var14 var13 var12 var11 var10 var9 var8) (= var7 (getInt (readHeap var14 (nthAddrRange var8 var13))))) (= var0 var8)) (= var1 var9)) (= var6 var10)) (= var2 var11)) (= var3 var12)) (= var4 var13)) (= var5 var14)) (is-O_Int (readHeap var14 (nthAddrRange var8 var13)))) (not (= var7 var6)))) (inv_main16 var5 (+ var4 1) var3 var2 var6 var1 var0))))
(assert (forall ((var0 AddrRange) (var1 Int) (var2 Int) (var3 Int) (var4 Int) (var5 Heap) (var6 Int) (var7 Int) (var8 AddrRange) (var9 Int) (var10 Int) (var11 Int) (var12 Int) (var13 Int) (var14 Heap)) (or (not (and (and (and (and (and (and (and (and (and (and (inv_main17 var14 var13 var12 var11 var10 var9 var8) (= var7 (getInt (readHeap var14 (nthAddrRange var8 var13))))) (= var0 var8)) (= var1 var9)) (= var6 var10)) (= var2 var11)) (= var3 var12)) (= var4 var13)) (= var5 var14)) (is-O_Int (readHeap var14 (nthAddrRange var8 var13)))) (= var7 var6))) (inv_main16 var5 (+ var4 1) var3 var4 var6 1 var0))))
(assert (forall ((var0 AddrRange) (var1 Int) (var2 Int) (var3 Int) (var4 Int) (var5 Int) (var6 Int) (var7 Heap) (var8 Int) (var9 Int) (var10 Int) (var11 Int) (var12 Heap)) (or (not (and (batchAllocHeapPostHeap emptyHeap var7 (O_Int var6) var10) (and (and (and (and (and (and (and (and (inv_main5 var12 var11 var10 var9) (= var0 (AddrRange (ite (<= 0 (+ var10 (- 1))) (+ (HeapSize emptyHeap) 1) (HeapSize emptyHeap)) var10))) (= var1 0)) (= var3 var2)) (= var4 var9)) (= var8 var10)) (= var5 var11)) true) (not (<= 0 (+ var8 (* (- 1) 1))))))) (inv_main16 var7 0 var8 var4 var3 var1 var0))))
(assert (forall ((var0 AddrRange) (var1 Int) (var2 Int) (var3 Int) (var4 Int) (var5 Int) (var6 Int) (var7 Heap) (var8 Int) (var9 Int) (var10 Int) (var11 Int) (var12 Heap)) (or (not (and (and (and (and (and (and (and (and (inv_main5 var12 var11 var10 var9) (= var0 (AddrRange (ite (<= 0 (+ var10 (- 1))) (+ (HeapSize emptyHeap) 1) (HeapSize emptyHeap)) var10))) (= var1 0)) (= var3 var2)) (= var4 var9)) (= var8 var10)) (= var5 var11)) true) (not (<= 0 (+ var8 (* (- 1) 1)))))) (batchAllocHeap emptyHeap emptyHeap (O_Int var6) var10 var10))))
(assert (forall ((var0 Int) (var1 AddrRange) (var2 Int) (var3 Int) (var4 Int) (var5 Int) (var6 Int) (var7 Heap)) (or (not (and (and (inv_main35 var7 var6 var5 var4 var3 var2 var1 var0) (is-O_Int (readHeap var7 (nthAddrRange var1 var0)))) (<= 0 (+ (+ (* (- 1) (+ var0 1)) var4) (* (- 1) 1))))) (inv_main35 var7 var6 var5 var4 var3 var2 var1 (+ var0 1)))))
(assert (forall ((var0 AddrRange) (var1 Int) (var2 Int) (var3 Int) (var4 Int) (var5 Int) (var6 Heap)) (or (not (and (and (and (and (inv_main16 var6 var5 var4 var3 var2 var1 var0) (or (not (<= 0 (+ (+ (* (- 1) var5) var4) (* (- 1) 1)))) (not (= var1 0)))) (= var1 0)) (not (= var1 0))) (<= 0 (+ var3 (* (- 1) 1))))) (inv_main35 var6 var5 var4 var3 var2 var1 var0 0))))
(assert (forall ((var0 AddrRange) (var1 Int) (var2 Int) (var3 Int) (var4 Int) (var5 Int) (var6 Heap)) (or (not (and (and (and (and (and (inv_main16 var6 var5 var4 var3 var2 var1 var0) (or (not (<= 0 (+ (+ (* (- 1) var5) var4) (* (- 1) 1)))) (not (= var1 0)))) (not (= var1 0))) (not (<= 0 (+ (+ (+ (* (- 1) var3) (* (- 1) 1)) var4) (* (- 1) 1))))) (not (= var1 0))) (<= 0 (+ var3 (* (- 1) 1))))) (inv_main35 var6 var3 var4 var3 var2 var1 var0 0))))
(assert (forall ((var0 AddrRange) (var1 Int) (var2 Heap) (var3 Int) (var4 Int) (var5 Int) (var6 Int) (var7 Int) (var8 AddrRange) (var9 Int) (var10 Int) (var11 Int) (var12 Int) (var13 Int) (var14 Heap)) (or (not (and (and (and (and (and (and (and (and (and (and (and (and (inv_main29 var14 var13 var12 var11 var10 var9 var8 var7) (= var0 var8)) (= var5 var9)) (= var1 var10)) (= var6 var11)) (= var4 var12)) (= var3 var13)) (= var2 (writeHeap var14 (nthAddrRange var8 var13) (O_Int var7)))) (is-O_Int (readHeap var14 (nthAddrRange var8 var13)))) (is-O_Int (readHeap var14 (nthAddrRange var8 var13)))) (not (<= 0 (+ (+ (+ (* (- 1) (+ var3 1)) (* (- 1) 1)) var4) (* (- 1) 1))))) (not (= var5 0))) (<= 0 (+ var6 (* (- 1) 1))))) (inv_main35 var2 (+ var3 1) var4 var6 var1 var5 var0 0))))
(assert (forall ((var0 AddrRange) (var1 Int) (var2 Int) (var3 Int) (var4 Int) (var5 Int) (var6 Heap)) (or (not (and (and (inv_main16 var6 var5 var4 var3 var2 var1 var0) (= var1 0)) (<= 0 (+ (+ (* (- 1) var5) var4) (* (- 1) 1))))) (inv_main17 var6 var5 var4 var3 var2 var1 var0))))
(assert (forall ((var0 AddrRange) (var1 Int) (var2 Int) (var3 Int) (var4 Int) (var5 Int) (var6 Heap)) (or (not (and (inv_main27 var6 var5 var4 var3 var2 var1 var0) (is-O_Int (readHeap var6 (nthAddrRange var0 (+ var5 1)))))) (inv_main29 var6 var5 var4 var3 var2 var1 var0 (getInt (readHeap var6 (nthAddrRange var0 (+ var5 1))))))))
(assert (forall ((var0 AddrRange) (var1 Int) (var2 Int) (var3 Int) (var4 Int) (var5 Int) (var6 Heap)) (not (and (inv_main14 var6 var5 var4 var3 var2 var1 var0) (not (is-O_Int (readHeap var6 (nthAddrRange var0 var5))))))))
(assert (forall ((var0 AddrRange) (var1 Int) (var2 Int) (var3 Int) (var4 Int) (var5 Int) (var6 Heap)) (not (and (and (inv_main14 var6 var5 var4 var3 var2 var1 var0) (not (withinHeap var0 (nthAddrRange var0 var5)))) (is-O_Int (readHeap var6 (nthAddrRange var0 var5)))))))
(assert (forall ((var0 AddrRange) (var1 Int) (var2 Int) (var3 Int) (var4 Int) (var5 Int) (var6 Heap)) (not (and (and (inv_main14 var6 var5 var4 var3 var2 var1 var0) (not (is-O_Int (readHeap var6 (nthAddrRange var0 var5))))) (is-O_Int (readHeap var6 (nthAddrRange var0 var5)))))))
(assert (forall ((var0 AddrRange) (var1 Int) (var2 Int) (var3 Int) (var4 Int) (var5 Int) (var6 Heap)) (not (and (inv_main17 var6 var5 var4 var3 var2 var1 var0) (not (is-O_Int (readHeap var6 (nthAddrRange var0 var5))))))))
(assert (forall ((var0 AddrRange) (var1 Int) (var2 Int) (var3 Int) (var4 Int) (var5 Int) (var6 Heap)) (not (and (and (inv_main17 var6 var5 var4 var3 var2 var1 var0) (not (withinHeap var0 (nthAddrRange var0 var5)))) (is-O_Int (readHeap var6 (nthAddrRange var0 var5)))))))
(assert (forall ((var0 AddrRange) (var1 Int) (var2 Int) (var3 Int) (var4 Int) (var5 Int) (var6 Heap)) (not (and (inv_main27 var6 var5 var4 var3 var2 var1 var0) (not (is-O_Int (readHeap var6 (nthAddrRange var0 (+ var5 1)))))))))
(assert (forall ((var0 AddrRange) (var1 Int) (var2 Int) (var3 Int) (var4 Int) (var5 Int) (var6 Heap)) (not (and (and (inv_main27 var6 var5 var4 var3 var2 var1 var0) (not (withinHeap var0 (nthAddrRange var0 (+ var5 1))))) (is-O_Int (readHeap var6 (nthAddrRange var0 (+ var5 1))))))))
(assert (forall ((var0 Int) (var1 AddrRange) (var2 Int) (var3 Int) (var4 Int) (var5 Int) (var6 Int) (var7 Heap)) (not (and (inv_main29 var7 var6 var5 var4 var3 var2 var1 var0) (not (is-O_Int (readHeap var7 (nthAddrRange var1 var6))))))))
(assert (forall ((var0 Int) (var1 AddrRange) (var2 Int) (var3 Int) (var4 Int) (var5 Int) (var6 Int) (var7 Heap)) (not (and (and (inv_main29 var7 var6 var5 var4 var3 var2 var1 var0) (not (withinHeap var1 (nthAddrRange var1 var6)))) (is-O_Int (readHeap var7 (nthAddrRange var1 var6)))))))
(assert (forall ((var0 Int) (var1 AddrRange) (var2 Int) (var3 Int) (var4 Int) (var5 Int) (var6 Int) (var7 Heap)) (not (and (and (inv_main29 var7 var6 var5 var4 var3 var2 var1 var0) (not (is-O_Int (readHeap var7 (nthAddrRange var1 var6))))) (is-O_Int (readHeap var7 (nthAddrRange var1 var6)))))))
(assert (forall ((var0 Int) (var1 AddrRange) (var2 Int) (var3 Int) (var4 Int) (var5 Int) (var6 Int) (var7 Heap)) (not (and (inv_main35 var7 var6 var5 var4 var3 var2 var1 var0) (not (is-O_Int (readHeap var7 (nthAddrRange var1 var0))))))))
(assert (forall ((var0 Int) (var1 AddrRange) (var2 Int) (var3 Int) (var4 Int) (var5 Int) (var6 Int) (var7 Heap)) (not (and (inv_main35 var7 var6 var5 var4 var3 var2 var1 var0) (not (withinHeap var1 (nthAddrRange var1 var0)))))))
(assert (forall ((var0 Int) (var1 AddrRange) (var2 Int) (var3 Int) (var4 Int) (var5 Int) (var6 Int) (var7 Heap)) (not (and (inv_main35 var7 var6 var5 var4 var3 var2 var1 var0) (not (is-O_Int (readHeap var7 (nthAddrRange var1 var0))))))))
(assert (forall ((var0 Int) (var1 AddrRange) (var2 Int) (var3 Int) (var4 Int) (var5 Int) (var6 Int) (var7 Heap)) (not (and (and (inv_main35 var7 var6 var5 var4 var3 var2 var1 var0) (not (withinHeap var1 (nthAddrRange var1 var0)))) (is-O_Int (readHeap var7 (nthAddrRange var1 var0)))))))
(assert (forall ((var0 Int) (var1 AddrRange) (var2 Int) (var3 Int) (var4 Int) (var5 Int) (var6 Int) (var7 Heap)) (not (and (and (inv_main35 var7 var6 var5 var4 var3 var2 var1 var0) (= (getInt (readHeap var7 (nthAddrRange var1 var0))) var3)) (is-O_Int (readHeap var7 (nthAddrRange var1 var0)))))))
(check-sat)
